nbNodes = 12;
nbVehi = 3;
nbServi = 4;

e = 
 [ 0,  388,  436,  104,  220,   70,  328,  398,  446,  177,  359,    0,];

l = 
 [480, 480, 520, 166, 320, 151, 407, 504, 519, 244, 459, 480,];

a = 
 [|  1,  0,  1,  1,
 |  0,  1,  0,  1,
 |  0,  0,  1,  0,
 |];

p = array3d(1..nbNodes,1..nbVehi,1..nbServi,
[  0,  0,  0,  0,	  0,  0,  0,  0,	  0,  0,  0,  0,	
 35, 41, 46, 37,	 31, 41, 37, 13,	 19, 62, 27, 45,	
 21, 31, 15, 41,	 22, 20, 27, 57,	 19, 70, 64, 57,	
 51, 39, 57, 51,	 59, 61, 57, 45,	 18, 45, 53, 13,	
 56, 38, 33, 45,	 37, 24, 63, 58,	 70, 74, 65, 49,	
 62, 62, 38, 62,	 39, 55, 33, 26,	 16, 26, 54, 11,	
 12, 16, 41, 12,	 45, 62, 15, 36,	 15, 50, 33, 20,	
 30, 28, 60, 58,	 33, 23, 18, 38,	 21, 42, 15, 60,	
 11, 20, 52, 59,	 28, 53, 58, 33,	 17, 41, 63, 48,	
 67, 52, 63, 62,	 52, 46, 16, 31,	 52, 10, 19, 52,	
 50, 40, 23, 47,	 34, 46, 66, 62,	 35, 55, 62, 56,	
  0,  0,  0,  0,	  0,  0,  0,  0,	  0,  0,  0,  0,	
]);

rs = 
[|  true,  true,  true,  true,	 	
|  false,  false,  true,  false,	  	
|  true,  false,  false,  false,	  	
|  false,  false,  false,  true,	  	
|  false,  false,  false,  true,	  	
|  true,  false,  false,  false,	  	
|  true,  false,  false,  false,	  	
|  false,  false,  false,  true,	  	
|  false,  true,  false,  false,	  	
|  false,  true,  false,  false,	  	
|  false,  false,  true,  false,	  	
|  true,  true,  true,  true,	  	
|];

d=[|0, 24, 0, 0, 10, 3, 13, 25, 3, 11, 2, 0, 
|24, 0, 24, 24, 34, 21, 36, 33, 27, 31, 23, 24, 
|0, 24, 0, 0, 10, 3, 13, 25, 3, 11, 2, 0, 
|0, 24, 0, 0, 10, 3, 13, 25, 3, 11, 2, 0, 
|10, 34, 10, 10, 0, 13, 7, 26, 7, 12, 11, 10, 
|3, 21, 3, 3, 13, 0, 15, 26, 6, 12, 4, 3, 
|13, 36, 13, 13, 7, 15, 0, 34, 10, 6, 15, 13, 
|25, 33, 25, 25, 26, 26, 34, 0, 26, 36, 23, 25, 
|3, 27, 3, 3, 7, 6, 10, 26, 0, 9, 5, 3, 
|11, 31, 11, 11, 12, 12, 6, 36, 9, 0, 13, 11, 
|2, 23, 2, 2, 11, 4, 15, 23, 5, 13, 0, 2, 
|0, 24, 0, 0, 10, 3, 13, 25, 3, 11, 2, 0, 
|];
